32	0

0	1	2
10	1	3
1	2	4	5
8	2	6	9
4	2	6	9
3	2	7	8
3	1	10
2	1	10
6	1	10
6	1	11
5	2	12	14
3	1	13
4	3	15	16	17
9	2	15	17
8	3	18	20	21
10	3	18	20	21
7	3	18	20	21
5	3	19	22	25
6	1	23
8	1	22
6	1	22
3	1	23
3	2	24	26
5	1	28
10	1	26
1	1	27
3	1	28
6	3	29	30	31
9	1	32
10	1	32
10	1	32
0	0
